
Gurobi 12.0.3 (linux64) logging started Thu Aug 21 02:41:21 2025

Set parameter LogFile to value "logs/instance-06.txt"
Gurobi Optimizer version 12.0.3 build v12.0.3rc0 (linux64 - "Ubuntu 24.04.3 LTS")

CPU model: Intel(R) Core(TM) i5-8250U CPU @ 1.60GHz, instruction set [SSE2|AVX|AVX2]
Thread count: 4 physical cores, 8 logical processors, using up to 8 threads

Non-default parameters:
TimeLimit  900

Optimize a model with 3725 rows, 1275 columns and 9053 nonzeros
Model fingerprint: 0x3788f323
Variable types: 0 continuous, 1275 integer (1275 binary)
Coefficient statistics:
  Matrix range     [1e+00, 1e+00]
  Objective range  [1e+00, 1e+01]
  Bounds range     [1e+00, 1e+00]
  RHS range        [1e+00, 1e+00]
Found heuristic solution: objective -299.0000000
Found heuristic solution: objective 10.0000000
Presolve removed 1949 rows and 60 columns
Presolve time: 0.04s
Presolved: 1776 rows, 1215 columns, 4523 nonzeros
Variable types: 0 continuous, 1215 integer (1215 binary)

Root relaxation: objective 1.535500e+03, 886 iterations, 0.04 seconds (0.03 work units)

    Nodes    |    Current Node    |     Objective Bounds      |     Work
 Expl Unexpl |  Obj  Depth IntInf | Incumbent    BestBd   Gap | It/Node Time

     0     0 1535.50000    0  612   10.00000 1535.50000      -     -    0s
H    0     0                     143.0000000 1535.50000   974%     -    0s
H    0     0                     314.0000000 1535.50000   389%     -    0s
H    0     0                     324.0000000 1535.50000   374%     -    0s
H    0     0                     344.0000000  934.60000   172%     -    0s
     0     0  908.25000    0  722  344.00000  908.25000   164%     -    0s
     0     0  843.67742    0  774  344.00000  843.67742   145%     -    1s
     0     0  843.67742    0  758  344.00000  843.67742   145%     -    1s
     0     0  843.67742    0  766  344.00000  843.67742   145%     -    1s
     0     0  843.67742    0  779  344.00000  843.67742   145%     -    1s
H    0     0                     345.0000000  640.52083  85.7%     -    3s
H    0     0                     358.0000000  640.52083  78.9%     -    3s
H    0     0                     362.0000000  640.52083  76.9%     -    3s
H    0     0                     406.0000000  640.52083  57.8%     -    3s
H    0     0                     434.0000000  640.52083  47.6%     -    3s
H    0     0                     444.0000000  640.52083  44.3%     -    3s
     0     0  640.52083    0 1052  444.00000  640.52083  44.3%     -    3s
H    0     0                     451.0000000  598.87635  32.8%     -    5s
H    0     0                     455.0000000  598.87635  31.6%     -    5s
H    0     0                     459.0000000  598.87635  30.5%     -    5s
H    0     0                     464.0000000  598.87635  29.1%     -    5s
H    0     0                     467.0000000  598.87635  28.2%     -    5s
H    0     0                     469.0000000  598.87635  27.7%     -    5s
H    0     0                     481.0000000  598.87635  24.5%     -    5s
H    0     0                     484.0000000  598.87635  23.7%     -    5s
H    0     0                     485.0000000  598.87635  23.5%     -    5s
H    0     0                     497.0000000  598.87635  20.5%     -    5s
     0     0  598.87635    0 1077  497.00000  598.87635  20.5%     -    5s
     0     0  590.88150    0 1073  497.00000  590.88150  18.9%     -    6s
     0     0  588.51878    0 1081  497.00000  588.51878  18.4%     -    7s
     0     0  588.03458    0 1079  497.00000  588.03458  18.3%     -    7s
     0     0  565.99846    0 1114  497.00000  565.99846  13.9%     -    9s
     0     0  559.50782    0 1096  497.00000  559.50782  12.6%     -   11s
     0     0  556.80774    0 1109  497.00000  556.80774  12.0%     -   12s
     0     0  555.59606    0 1133  497.00000  555.59606  11.8%     -   13s
H    0     0                     502.0000000  550.61429  9.68%     -   15s
     0     0  550.61429    0 1105  502.00000  550.61429  9.68%     -   15s
     0     0  550.61429    0 1105  502.00000  550.61429  9.68%     -   15s
     0     2  550.61429    0 1103  502.00000  550.61429  9.68%     -   16s
     7     8     cutoff    3       502.00000  530.26487  5.63%  3532   20s
    37    13     cutoff    4       502.00000  520.83362  3.75%  1952   25s
*   38    13               4     514.0000000  520.83362  1.33%  1903   25s

Cutting planes:
  Gomory: 1
  Dual implied bound: 5
  MIR: 10
  Zero half: 60
  RLT: 1041
  BQP: 1547

Explored 51 nodes (105442 simplex iterations) in 25.57 seconds (21.89 work units)
Thread count was 8 (of 8 available processors)

Solution count 10: 514 502 497 ... 459

Optimal solution found (tolerance 1.00e-04)
Best objective 5.140000000000e+02, best bound 5.140000000000e+02, gap 0.0000%
